* ENCODING=ISO-8859-1
NAME          CPLEX
ROWS
 N  obj1    
 G  c1      
 G  c2      
 G  c3      
 G  c4      
 G  c5      
 G  c6      
 G  c7      
 G  c8      
 G  c9      
 G  c10     
 G  c11     
 G  c12     
 G  c13     
 G  c14     
 G  c15     
 G  c16     
 G  c17     
 G  c18     
 G  c19     
 G  c20     
 G  c21     
 G  c22     
 G  c23     
 G  c24     
 G  c25     
 G  c26     
 G  c27     
 G  c28     
 G  c29     
 G  c30     
 G  c31     
 G  c32     
 G  c33     
 G  c34     
 G  c35     
 G  c36     
 G  c37     
 G  c38     
 G  c39     
 G  c40     
 G  c41     
 G  c42     
 G  c43     
 G  c44     
 G  c45     
 G  c46     
 G  c47     
 G  c48     
 G  c49     
 G  c50     
 G  c51     
 G  c52     
 G  c53     
 G  c54     
 G  c55     
 G  c56     
 G  c57     
 G  c58     
 G  c59     
 G  c60     
COLUMNS
    MARK0000  'MARKER'                 'INTORG'
    x1        obj1                            1
    x1        c1                            963
    x1        c5                            336
    x1        c9                            496
    x1        c10                           217
    x1        c15                           237
    x1        c22                           894
    x1        c29                           659
    x1        c45                           479
    x1        c46                           804
    x1        c50                           383
    x1        c56                           695
    x1        c59                           283
    x2        obj1                            1
    x2        c19                           572
    x2        c35                           940
    x2        c39                           790
    x2        c59                           733
    x3        obj1                            1
    x3        c9                            636
    x3        c20                           970
    x3        c28                           773
    x3        c45                           413
    x3        c55                           986
    x4        obj1                            1
    x4        c4                            309
    x4        c7                            666
    x4        c14                           855
    x4        c34                           365
    x4        c35                           769
    x4        c38                           624
    x4        c43                           490
    x4        c47                           485
    x4        c48                           151
    x4        c52                           824
    x5        obj1                            1
    x5        c7                            170
    x5        c8                            244
    x5        c9                            707
    x5        c10                           621
    x5        c23                           553
    x6        obj1                            1
    x6        c1                            569
    x6        c33                           360
    x6        c50                           564
    x6        c54                           926
    x6        c55                           262
    x6        c56                           987
    x7        obj1                            1
    x7        c18                           158
    x7        c21                           155
    x7        c22                           647
    x7        c24                           596
    x8        obj1                            1
    x8        c12                           699
    x8        c18                           295
    x8        c19                           847
    x8        c60                           187
    x9        obj1                            1
    x9        c3                            497
    x9        c12                           477
    x9        c15                           279
    x9        c25                           826
    x9        c27                           818
    x9        c39                           971
    x9        c43                           678
    x9        c45                           159
    x9        c56                           343
    x10       obj1                            1
    x10       c12                           303
    x10       c32                           153
    x10       c42                           611
    x10       c60                           994
    x11       obj1                            1
    x11       c7                            808
    x11       c17                           566
    x11       c19                           626
    x11       c26                           597
    x11       c43                           963
    x11       c46                           268
    x11       c48                           687
    x11       c52                           766
    x11       c60                           254
    x12       obj1                            1
    x12       c2                            250
    x12       c19                           995
    x12       c38                           299
    x12       c46                           226
    x12       c50                           746
    x12       c59                           635
    x13       obj1                            1
    x13       c25                           258
    x13       c33                          1000
    x13       c35                           209
    x13       c39                           460
    x13       c52                           497
    x14       obj1                            1
    x14       c9                            449
    x14       c17                           493
    x14       c22                           340
    x14       c23                           320
    x14       c24                           126
    x14       c39                           987
    x14       c42                           687
    x14       c44                           291
    x14       c49                           772
    x14       c52                           974
    x14       c53                           592
    x15       obj1                            1
    x15       c9                            961
    x15       c32                           443
    x15       c39                           467
    x15       c43                           632
    x15       c44                           104
    x15       c48                           896
    x15       c53                           257
    x15       c54                           465
    x16       obj1                            1
    x16       c7                            226
    x16       c12                           344
    x16       c17                           678
    x16       c19                           797
    x16       c30                           115
    x16       c48                           658
    x17       obj1                            1
    x17       c12                           140
    x17       c16                           736
    x17       c19                           520
    x17       c20                           283
    x17       c21                           111
    x17       c23                           800
    x17       c32                           617
    x17       c43                           919
    x17       c54                           263
    x18       obj1                            1
    x18       c28                           451
    x18       c29                           159
    x18       c30                           881
    x18       c31                           503
    x18       c39                           996
    x18       c48                           759
    x19       obj1                            1
    x19       c12                           173
    x19       c14                           202
    x19       c18                           705
    x19       c24                           942
    x19       c40                           551
    x19       c49                           762
    x20       obj1                            1
    x20       c8                            951
    x20       c10                           332
    x20       c12                           266
    x20       c28                           213
    x20       c29                           355
    x20       c35                           811
    x20       c60                           464
    x21       obj1                            1
    x21       c17                           901
    x21       c25                           271
    x21       c28                           807
    x21       c29                           351
    x21       c42                           422
    x21       c52                           997
    x21       c53                           341
    x22       obj1                            1
    x22       c1                            364
    x22       c9                            985
    x22       c17                           294
    x22       c49                           924
    x23       obj1                            1
    x23       c4                            403
    x23       c10                           851
    x23       c21                           707
    x23       c54                           644
    x24       obj1                            1
    x24       c20                           493
    x24       c26                           595
    x24       c37                           244
    x24       c40                           403
    x24       c53                           194
    x24       c56                           207
    x25       obj1                            1
    x25       c8                            714
    x25       c26                           171
    x25       c28                           486
    x25       c29                           568
    x25       c38                           182
    x25       c40                           383
    x25       c47                           424
    x25       c60                           609
    x26       obj1                            1
    x26       c3                            589
    x26       c5                            204
    x26       c7                            750
    x26       c8                            693
    x26       c16                           328
    x26       c24                           254
    x26       c45                           247
    x26       c46                           737
    x26       c49                           439
    x26       c54                           787
    x26       c60                           734
    x27       obj1                            1
    x27       c17                           602
    x27       c18                           746
    x27       c30                           290
    x27       c50                           545
    x27       c52                           827
    x28       obj1                            1
    x28       c7                            476
    x28       c9                            120
    x28       c12                           644
    x28       c40                           554
    x28       c49                           460
    x29       obj1                            1
    x29       c28                           704
    x29       c40                           174
    x29       c41                           272
    x29       c49                           674
    x29       c51                           488
    x29       c59                           209
    x30       obj1                            1
    x30       c14                           468
    x30       c36                           753
    x30       c42                           232
    x30       c58                           737
    x31       obj1                            1
    x31       c17                           752
    x31       c21                           165
    x31       c27                           683
    x31       c36                           626
    x31       c58                           254
    x32       obj1                            1
    x32       c20                           825
    x32       c45                           931
    x32       c54                           415
    x33       obj1                            1
    x33       c8                            298
    x33       c11                           663
    x33       c20                           660
    x33       c28                           112
    x33       c41                           579
    x33       c44                           802
    x33       c57                           997
    x33       c59                           145
    x34       obj1                            1
    x34       c1                            464
    x34       c18                           518
    x34       c45                           277
    x34       c48                           883
    x34       c52                           189
    x35       obj1                            1
    x35       c5                            757
    x35       c14                           657
    x35       c15                           911
    x35       c18                           839
    x35       c31                           570
    x35       c38                           916
    x35       c43                           542
    x35       c56                           280
    x35       c59                           952
    x35       c60                           908
    x36       obj1                            1
    x36       c20                           334
    x36       c34                           950
    x37       obj1                            1
    x37       c1                            184
    x37       c13                           370
    x37       c16                           154
    x37       c20                           402
    x37       c22                           695
    x37       c34                           850
    x37       c37                           256
    x37       c48                           101
    x37       c49                           803
    x38       obj1                            1
    x38       c1                            893
    x38       c42                           953
    x38       c56                           535
    x39       obj1                            1
    x39       c10                           504
    x39       c31                           358
    x39       c34                           944
    x39       c50                           634
    x39       c52                           934
    x40       obj1                            1
    x40       c19                           555
    x40       c26                           824
    x40       c27                           480
    x40       c51                           450
    x41       obj1                            1
    x41       c22                           717
    x41       c32                           837
    x41       c40                           144
    x41       c47                           813
    x41       c50                           568
    x42       obj1                            1
    x42       c15                           707
    x42       c29                           933
    x42       c32                           997
    x42       c54                           329
    x42       c60                           883
    x43       obj1                            1
    x43       c1                            941
    x43       c11                           384
    x43       c21                           920
    x43       c42                           485
    x43       c53                           424
    x44       obj1                            1
    x44       c1                            167
    x44       c4                            630
    x44       c13                           827
    x44       c22                           949
    x44       c31                           639
    x44       c37                           993
    x44       c40                           238
    x44       c44                           142
    x44       c49                           193
    x45       obj1                            1
    x45       c12                           900
    x45       c35                           844
    x45       c52                           946
    x46       obj1                            1
    x46       c13                           475
    x46       c19                           205
    x46       c22                           556
    x46       c33                           963
    x46       c39                           330
    x46       c51                           494
    x47       obj1                            1
    x47       c13                           868
    x47       c20                           337
    x47       c23                           523
    x47       c32                           692
    x47       c36                           805
    x47       c48                           168
    x47       c57                           918
    x48       obj1                            1
    x48       c6                            741
    x48       c8                            958
    x48       c22                           321
    x48       c24                           347
    x48       c45                           106
    x48       c49                           832
    x48       c57                           927
    x49       obj1                            1
    x49       c16                           335
    x49       c29                           812
    x49       c31                           801
    x49       c44                           175
    x49       c60                           675
    x50       obj1                            1
    x50       c27                           426
    x51       obj1                            1
    x51       c8                            363
    x51       c11                           612
    x51       c46                           297
    x51       c48                           655
    x52       obj1                            1
    x52       c5                            128
    x52       c10                           349
    x52       c28                           488
    x52       c58                           995
    x53       obj1                            1
    x53       c17                           755
    x53       c34                           488
    x53       c36                           587
    x53       c38                           544
    x53       c42                           490
    x53       c47                           280
    x53       c55                           320
    x54       obj1                            1
    x54       c9                            132
    x54       c15                           478
    x54       c17                           299
    x54       c19                           301
    x54       c58                           341
    x55       obj1                            1
    x55       c2                            206
    x55       c8                            516
    x56       obj1                            1
    x56       c21                           396
    x56       c29                           565
    x56       c41                           195
    x56       c45                           561
    x56       c53                           948
    x57       obj1                            1
    x58       obj1                            1
    x58       c1                            129
    x58       c6                            169
    x58       c9                            723
    x58       c37                           885
    x58       c42                           735
    x58       c45                           360
    x58       c50                           653
    x58       c53                           130
    x59       obj1                            1
    x59       c2                            699
    x59       c5                            985
    x59       c8                            234
    x59       c32                           364
    x59       c42                           580
    x59       c57                           236
    x59       c58                           474
    x60       obj1                            1
    x60       c3                            505
    x60       c6                            220
    x60       c15                           448
    x60       c20                           573
    x60       c22                           867
    x60       c28                           278
    x60       c35                           869
    x60       c40                           160
    MARK0001  'MARKER'                 'INTEND'
RHS
    rhs       c1                           2337
    rhs       c2                            578
    rhs       c3                            796
    rhs       c4                            671
    rhs       c5                           1205
    rhs       c6                            565
    rhs       c7                           1548
    rhs       c8                           2486
    rhs       c9                           2605
    rhs       c10                          1437
    rhs       c11                           830
    rhs       c12                          1973
    rhs       c13                          1270
    rhs       c14                          1091
    rhs       c15                          1530
    rhs       c16                           777
    rhs       c17                          2670
    rhs       c18                          1631
    rhs       c19                          2709
    rhs       c20                          2439
    rhs       c21                          1227
    rhs       c22                          2993
    rhs       c23                          1098
    rhs       c24                          1133
    rhs       c25                           678
    rhs       c26                          1094
    rhs       c27                          1204
    rhs       c28                          2156
    rhs       c29                          2201
    rhs       c30                           643
    rhs       c31                          1436
    rhs       c32                          2052
    rhs       c33                          1162
    rhs       c34                          1799
    rhs       c35                          2221
    rhs       c36                          1386
    rhs       c37                          1189
    rhs       c38                          1283
    rhs       c39                          2501
    rhs       c40                          1304
    rhs       c41                           523
    rhs       c42                          2598
    rhs       c43                          2112
    rhs       c44                           757
    rhs       c45                          1767
    rhs       c46                          1166
    rhs       c47                          1001
    rhs       c48                          2479
    rhs       c49                          2930
    rhs       c50                          2047
    rhs       c51                           716
    rhs       c52                          3477
    rhs       c53                          1443
    rhs       c54                          1915
    rhs       c55                           784
    rhs       c56                          1524
    rhs       c57                          1539
    rhs       c58                          1401
    rhs       c59                          1479
    rhs       c60                          2854
BOUNDS
 LI bnd       x1        0
 LI bnd       x2        0
 LI bnd       x3        0
 LI bnd       x4        0
 LI bnd       x5        0
 LI bnd       x6        0
 LI bnd       x7        0
 LI bnd       x8        0
 LI bnd       x9        0
 LI bnd       x10       0
 LI bnd       x11       0
 LI bnd       x12       0
 LI bnd       x13       0
 LI bnd       x14       0
 LI bnd       x15       0
 LI bnd       x16       0
 LI bnd       x17       0
 LI bnd       x18       0
 LI bnd       x19       0
 LI bnd       x20       0
 LI bnd       x21       0
 LI bnd       x22       0
 LI bnd       x23       0
 LI bnd       x24       0
 LI bnd       x25       0
 LI bnd       x26       0
 LI bnd       x27       0
 LI bnd       x28       0
 LI bnd       x29       0
 LI bnd       x30       0
 LI bnd       x31       0
 LI bnd       x32       0
 LI bnd       x33       0
 LI bnd       x34       0
 LI bnd       x35       0
 LI bnd       x36       0
 LI bnd       x37       0
 LI bnd       x38       0
 LI bnd       x39       0
 LI bnd       x40       0
 LI bnd       x41       0
 LI bnd       x42       0
 LI bnd       x43       0
 LI bnd       x44       0
 LI bnd       x45       0
 LI bnd       x46       0
 LI bnd       x47       0
 LI bnd       x48       0
 LI bnd       x49       0
 LI bnd       x50       0
 LI bnd       x51       0
 LI bnd       x52       0
 LI bnd       x53       0
 LI bnd       x54       0
 LI bnd       x55       0
 LI bnd       x56       0
 LI bnd       x57       0
 LI bnd       x58       0
 LI bnd       x59       0
 LI bnd       x60       0
ENDATA
